NAME          
ROWS
 N  OBJ
 L  c1
 L  c2
 L  c3
COLUMNS
    MARKER    'MARKER'                 'INTORG'
    x[1]      c1        714
    x[1]      c2        329
    x[1]      c3        801
    x[1]      OBJ       -247
    x[2]      c1        331
    x[2]      c2        756
    x[2]      c3        516
    x[2]      OBJ       -71
    x[3]      c1        527
    x[3]      c2        456
    x[3]      c3        231
    x[3]      OBJ       -299
    x[4]      c1        890
    x[4]      c2        133
    x[4]      c3        633
    x[4]      OBJ       -398
    x[5]      c1        333
    x[5]      c2        468
    x[5]      c3        790
    x[5]      OBJ       -879
    x[6]      c1        389
    x[6]      c2        30
    x[6]      c3        22
    x[6]      OBJ       -199
    x[7]      c1        231
    x[7]      c2        540
    x[7]      c3        738
    x[7]      OBJ       -138
    x[8]      c1        473
    x[8]      c2        347
    x[8]      c3        145
    x[8]      OBJ       -492
    x[9]      c1        635
    x[9]      c2        414
    x[9]      c3        221
    x[9]      OBJ       -160
    x[10]     c1        836
    x[10]     c2        748
    x[10]     c3        960
    x[10]     OBJ       -393
    x[11]     c1        229
    x[11]     c2        776
    x[11]     c3        58
    x[11]     OBJ       -216
    x[12]     c1        386
    x[12]     c2        44
    x[12]     c3        292
    x[12]     OBJ       -894
    x[13]     c1        30
    x[13]     c2        857
    x[13]     c3        480
    x[13]     OBJ       -586
    x[14]     c1        515
    x[14]     c2        373
    x[14]     c3        227
    x[14]     OBJ       -722
    x[15]     c1        130
    x[15]     c2        759
    x[15]     c3        538
    x[15]     OBJ       -518
    x[16]     c1        339
    x[16]     c2        930
    x[16]     c3        153
    x[16]     OBJ       -923
    x[17]     c1        537
    x[17]     c2        797
    x[17]     c3        34
    x[17]     OBJ       -629
    x[18]     c1        324
    x[18]     c2        988
    x[18]     c3        214
    x[18]     OBJ       -161
    x[19]     c1        596
    x[19]     c2        331
    x[19]     c3        135
    x[19]     OBJ       -830
    x[20]     c1        406
    x[20]     c2        761
    x[20]     c3        177
    x[20]     OBJ       -540
RHS
    rhs       c1        4426
    rhs       c2        5418
    rhs       c3        3682
RANGES
BOUNDS
 BV bounds    x[1]
 BV bounds    x[2]
 BV bounds    x[3]
 BV bounds    x[4]
 BV bounds    x[5]
 BV bounds    x[6]
 BV bounds    x[7]
 BV bounds    x[8]
 BV bounds    x[9]
 BV bounds    x[10]
 BV bounds    x[11]
 BV bounds    x[12]
 BV bounds    x[13]
 BV bounds    x[14]
 BV bounds    x[15]
 BV bounds    x[16]
 BV bounds    x[17]
 BV bounds    x[18]
 BV bounds    x[19]
 BV bounds    x[20]
ENDATA
